(set-logic QF_S)
(declare-fun var0 () String)
(assert (str.in.re var0 (re.++ (re.* (re.+ (str.to.re "00"))) (re.++ (re.+ (re.union (str.to.re "11") (str.to.re "22"))) (re.++ (re.* (re.* (str.to.re "333"))) (re.++ (re.union (re.* (str.to.re "444")) (re.* (str.to.re "5"))) (re.++ (re.* (re.union (str.to.re "6") (str.to.re "77"))) (re.++ (re.* (re.+ (str.to.re "8"))) (re.++ (re.+ (re.union (str.to.re "99") (str.to.re "aa"))) (re.++ (re.+ (re.* (str.to.re "bb"))) (re.++ (re.union (re.* (str.to.re "ccc")) (re.* (str.to.re "d"))) (re.++ (re.+ (re.* (str.to.re "e"))) (re.++ (re.+ (re.* (str.to.re "fff"))) (re.++ (re.union (re.+ (str.to.re "g")) (re.+ (str.to.re "h"))) (re.++ (re.+ (re.* (str.to.re "iii"))) (re.++ (re.* (re.+ (str.to.re "jjj"))) (re.++ (re.union (re.+ (str.to.re "kkk")) (re.+ (str.to.re "l"))) (re.++ (re.+ (re.+ (str.to.re "mmm"))) (re.++ (re.* (re.union (str.to.re "nn") (str.to.re "ooo"))) (re.++ (re.union (re.* (str.to.re "ppp")) (re.* (str.to.re "qq"))) (re.++ (re.+ (re.union (str.to.re "rrr") (str.to.re "sss"))) (re.++ (re.* (re.* (str.to.re "t"))) (re.++ (re.+ (re.* (str.to.re "uuu"))) (re.++ (re.* (re.union (str.to.re "vvv") (str.to.re "www"))) (re.++ (re.+ (re.+ (str.to.re "xxx"))) (re.++ (re.+ (re.union (str.to.re "y") (str.to.re "zz"))) (re.++ (re.* (re.union (str.to.re "AAA") (str.to.re "BBB"))) (re.++ (re.union (re.+ (str.to.re "CC")) (re.+ (str.to.re "DD"))) (re.++ (re.+ (re.+ (str.to.re "EE"))) (re.++ (re.union (re.* (str.to.re "FFF")) (re.* (str.to.re "GG"))) (re.++ (re.* (re.* (str.to.re "H"))) (re.++ (re.* (re.* (str.to.re "III"))) (re.++ (re.union (re.union (str.to.re "JJ") (str.to.re "KKK")) (re.union (str.to.re "LL") (str.to.re "MM"))) (re.++ (re.union (re.union (str.to.re "NN") (str.to.re "O")) (re.union (str.to.re "PPP") (str.to.re "QQ"))) (re.++ (re.union (re.+ (str.to.re "RRR")) (re.+ (str.to.re "SSS"))) (re.++ (re.* (re.+ (str.to.re "TTT"))) (re.++ (re.* (re.+ (str.to.re "UUU"))) (re.++ (re.union (re.union (str.to.re "VV") (str.to.re "WWW")) (re.union (str.to.re "X") (str.to.re "Y"))) (re.++ (re.union (re.* (str.to.re "ZZZ")) (re.* (str.to.re "!!!"))) (re.++ (re.* (re.* (str.to.re """"""))) (re.++ (re.union (re.+ (str.to.re "#")) (re.+ (str.to.re "$$"))) (re.++ (re.* (re.+ (str.to.re "%"))) (re.++ (re.* (re.+ (str.to.re "&&"))) (re.++ (re.+ (re.* (str.to.re "'"))) (re.++ (re.union (re.union (str.to.re "(((") (str.to.re ")))")) (re.union (str.to.re "**") (str.to.re "+++"))) (re.++ (re.+ (re.* (str.to.re ",,"))) (re.++ (re.* (re.+ (str.to.re "--"))) (re.++ (re.union (re.union (str.to.re ".") (str.to.re "//")) (re.union (str.to.re ":") (str.to.re ";;;"))) (re.++ (re.+ (re.union (str.to.re "<") (str.to.re "=="))) (re.++ (re.* (re.union (str.to.re ">") (str.to.re "?"))) (re.++ (re.* (re.+ (str.to.re "@@"))) (re.++ (re.union (re.* (str.to.re "[[")) (re.* (str.to.re "\\\\"))) (re.++ (re.union (re.* (str.to.re "]]")) (re.* (str.to.re "^^"))) (re.++ (re.union (re.* (str.to.re "___")) (re.* (str.to.re "`"))) (re.++ (re.+ (re.* (str.to.re "{{"))) (re.++ (re.* (re.union (str.to.re "|||") (str.to.re "}}"))) (re.++ (re.union (re.union (str.to.re "~~") (str.to.re "000")) (re.union (str.to.re "11") (str.to.re "2"))) (re.++ (re.* (re.union (str.to.re "333") (str.to.re "444"))) (re.++ (re.+ (re.union (str.to.re "555") (str.to.re "6"))) (re.++ (re.* (re.* (str.to.re "777"))) (re.++ (re.union (re.union (str.to.re "888") (str.to.re "99")) (re.union (str.to.re "aaa") (str.to.re "bbb"))) (re.++ (re.* (re.+ (str.to.re "ccc"))) (re.++ (re.union (re.* (str.to.re "dd")) (re.* (str.to.re "eee"))) (re.++ (re.+ (re.* (str.to.re "ff"))) (re.++ (re.union (re.+ (str.to.re "gg")) (re.+ (str.to.re "hhh"))) (re.++ (re.+ (re.union (str.to.re "i") (str.to.re "jjj"))) (re.++ (re.+ (re.union (str.to.re "kk") (str.to.re "ll"))) (re.++ (re.+ (re.union (str.to.re "mm") (str.to.re "nnn"))) (re.++ (re.+ (re.union (str.to.re "o") (str.to.re "pp"))) (re.++ (re.union (re.* (str.to.re "q")) (re.* (str.to.re "rr"))) (re.++ (re.+ (re.* (str.to.re "ss"))) (re.++ (re.+ (re.* (str.to.re "tt"))) (re.++ (re.union (re.union (str.to.re "u") (str.to.re "v")) (re.union (str.to.re "ww") (str.to.re "xxx"))) (re.++ (re.+ (re.* (str.to.re "yyy"))) (re.++ (re.* (re.+ (str.to.re "zzz"))) (re.++ (re.* (re.+ (str.to.re "AAA"))) (re.++ (re.* (re.union (str.to.re "B") (str.to.re "C"))) (re.++ (re.* (re.* (str.to.re "DDD"))) (re.++ (re.* (re.+ (str.to.re "E"))) (re.++ (re.+ (re.union (str.to.re "FF") (str.to.re "G"))) (re.++ (re.union (re.union (str.to.re "H") (str.to.re "I")) (re.union (str.to.re "J") (str.to.re "KK"))) (re.++ (re.union (re.* (str.to.re "LL")) (re.* (str.to.re "MM"))) (re.++ (re.* (re.+ (str.to.re "NN"))) (re.++ (re.+ (re.union (str.to.re "OO") (str.to.re "P"))) (re.++ (re.+ (re.+ (str.to.re "QQQ"))) (re.++ (re.* (re.+ (str.to.re "RRR"))) (re.++ (re.union (re.* (str.to.re "SSS")) (re.* (str.to.re "TTT"))) (re.++ (re.+ (re.union (str.to.re "U") (str.to.re "V"))) (re.++ (re.+ (re.* (str.to.re "WWW"))) (re.++ (re.union (re.+ (str.to.re "XXX")) (re.+ (str.to.re "YY"))) (re.++ (re.* (re.* (str.to.re "Z"))) (re.++ (re.+ (re.union (str.to.re "!!") (str.to.re """"""))) (re.++ (re.+ (re.+ (str.to.re "##"))) (re.++ (re.* (re.* (str.to.re "$"))) (re.++ (re.+ (re.+ (str.to.re "%%%"))) (re.++ (re.* (re.union (str.to.re "&") (str.to.re "'"))) (re.++ (re.* (re.* (str.to.re "((("))) (re.++ (re.+ (re.+ (str.to.re ")))"))) (re.++ (re.* (re.+ (str.to.re "**"))) (re.++ (re.+ (re.union (str.to.re "++") (str.to.re ",,"))) (re.++ (re.union (re.* (str.to.re "-")) (re.* (str.to.re "."))) (re.++ (re.* (re.* (str.to.re "///"))) (re.++ (re.* (re.+ (str.to.re ":"))) (re.++ (re.+ (re.+ (str.to.re ";;"))) (re.++ (re.* (re.union (str.to.re "<") (str.to.re "="))) (re.++ (re.+ (re.union (str.to.re ">>>") (str.to.re "???"))) (re.++ (re.* (re.union (str.to.re "@") (str.to.re "[[["))) (re.++ (re.+ (re.union (str.to.re "\\\\") (str.to.re "]"))) (re.++ (re.+ (re.* (str.to.re "^"))) (re.++ (re.+ (re.+ (str.to.re "__"))) (re.++ (re.union (re.+ (str.to.re "``")) (re.+ (str.to.re "{{{"))) (re.++ (re.* (re.union (str.to.re "|||") (str.to.re "}}}"))) (re.++ (re.union (re.+ (str.to.re "~~")) (re.+ (str.to.re "00"))) (re.++ (re.+ (re.* (str.to.re "111"))) (re.++ (re.union (re.* (str.to.re "2")) (re.* (str.to.re "333"))) (re.++ (re.+ (re.+ (str.to.re "44"))) (re.++ (re.* (re.+ (str.to.re "5"))) (re.++ (re.* (re.+ (str.to.re "6"))) (re.++ (re.* (re.+ (str.to.re "7"))) (re.++ (re.union (re.* (str.to.re "8")) (re.* (str.to.re "999"))) (re.++ (re.+ (re.+ (str.to.re "aaa"))) (re.++ (re.* (re.union (str.to.re "bbb") (str.to.re "cc"))) (re.++ (re.+ (re.union (str.to.re "dd") (str.to.re "e"))) (re.++ (re.+ (re.+ (str.to.re "ff"))) (re.++ (re.+ (re.union (str.to.re "ggg") (str.to.re "h"))) (re.++ (re.+ (re.union (str.to.re "i") (str.to.re "jj"))) (re.++ (re.+ (re.* (str.to.re "kkk"))) (re.++ (re.* (re.* (str.to.re "l"))) (re.++ (re.* (re.+ (str.to.re "mm"))) (re.++ (re.+ (re.union (str.to.re "nn") (str.to.re "o"))) (re.++ (re.* (re.+ (str.to.re "pp"))) (re.++ (re.* (re.union (str.to.re "q") (str.to.re "rr"))) (re.++ (re.union (re.+ (str.to.re "sss")) (re.+ (str.to.re "ttt"))) (re.++ (re.union (re.* (str.to.re "uu")) (re.* (str.to.re "vvv"))) (re.++ (re.union (re.* (str.to.re "w")) (re.* (str.to.re "x"))) (re.* (re.+ (str.to.re "y"))))))))))))))))))))))))))))))))))))))))))))))))))))))))))))))))))))))))))))))))))))))))))))))))))))))))))))))))))))))))))))))))))))))))))
(check-sat)